min: c;

c = 3.75554422682453 * u4_t1_h1 + 3.14990153042938 * u4_t1_h2 + 3.46441905938436 * u4_t1_h3 + 3.1026612220287 * u4_t1_h4 + 3.1026612220287 * u4_t10_h4 + 3.09868422918283 * u4_t1_h5 + 3.09868422918283 * u4_t10_h5 + 4.18267188465264 * u4_t1_h6 + 4.18267188465264 * u4_t10_h6 + 3.86111393247601 * u4_t1_h7 + 3.86111393247601 * u4_t10_h7 + 5.87052962457776 * u4_t1_h8 + 5.87052962457776 * u4_t9_h8 + 5.87052962457776 * u4_t10_h8 + 5.235809433592 * u4_t9_h9 + 5.235809433592 * u4_t10_h9 + 4.97907989525322 * u4_t9_h10 + 4.97907989525322 * u4_t10_h10 + 3.57248701016747 * u4_t2_h11 + 3.57248701016747 * u4_t4_h11 + 3.57248701016747 * u4_t9_h11 + 3.57248701016747 * u4_t10_h11 + 6.24284017313311 * u4_t2_h12 + 6.24284017313311 * u4_t3_h12 + 6.24284017313311 * u4_t4_h12 + 6.24284017313311 * u4_t8_h12 + 6.24284017313311 * u4_t9_h12 + 6.24284017313311 * u4_t10_h12 + 4.76998315800131 * u4_t2_h13 + 4.76998315800131 * u4_t3_h13 + 4.76998315800131 * u4_t4_h13 + 4.76998315800131 * u4_t8_h13 + 4.76998315800131 * u4_t9_h13 + 5.43005441598648 * u4_t2_h14 + 5.43005441598648 * u4_t3_h14 + 5.43005441598648 * u4_t4_h14 + 5.43005441598648 * u4_t8_h14 + 5.43005441598648 * u4_t9_h14 + 5.81205479319756 * u4_t2_h15 + 5.81205479319756 * u4_t3_h15 + 5.81205479319756 * u4_t4_h15 + 5.81205479319756 * u4_t8_h15 + 5.81205479319756 * u4_t9_h15 + 6.13515314939848 * u4_t2_h16 + 6.13515314939848 * u4_t3_h16 + 6.13515314939848 * u4_t4_h16 + 6.13515314939848 * u4_t5_h16 + 6.13515314939848 * u4_t8_h16 + 6.13515314939848 * u4_t9_h16 + 5.97549873003446 * u4_t2_h17 + 5.97549873003446 * u4_t3_h17 + 5.97549873003446 * u4_t5_h17 + 5.97549873003446 * u4_t8_h17 + 5.97549873003446 * u4_t9_h17 + 6.02633092504768 * u4_t2_h18 + 6.02633092504768 * u4_t3_h18 + 6.02633092504768 * u4_t5_h18 + 6.02633092504768 * u4_t8_h18 + 6.02633092504768 * u4_t9_h18 + 6.00557955644299 * u4_t2_h19 + 6.00557955644299 * u4_t3_h19 + 6.00557955644299 * u4_t6_h19 + 6.00557955644299 * u4_t8_h19 + 6.00557955644299 * u4_t9_h19 + 5.11340272976789 * u4_t2_h20 + 5.11340272976789 * u4_t6_h20 + 5.11340272976789 * u4_t9_h20 + 5.23624795043844 * u4_t6_h21 + 6.05538163467397 * u4_t6_h22 + 6.05538163467397 * u4_t7_h22 + 5.92183833222785 * u4_t6_h23 + 5.92183833222785 * u4_t7_h23;
0 <= u4_t1_h1 <= 1;
0 <= u4_t1_h2 <= 1;
0 <= u4_t1_h3 <= 1;
0 <= u4_t1_h4 <= 1;
0 <= u4_t1_h5 <= 1;
0 <= u4_t1_h6 <= 1;
0 <= u4_t1_h7 <= 1;
0 <= u4_t1_h8 <= 1;
u4_t1_h1 + u4_t1_h2 + u4_t1_h3 + u4_t1_h4 + u4_t1_h5 + u4_t1_h6 + u4_t1_h7 + u4_t1_h8 = 1;
0 <= u4_t2_h11 <= 1;
0 <= u4_t2_h12 <= 1;
0 <= u4_t2_h13 <= 1;
0 <= u4_t2_h14 <= 1;
0 <= u4_t2_h15 <= 1;
0 <= u4_t2_h16 <= 1;
0 <= u4_t2_h17 <= 1;
0 <= u4_t2_h18 <= 1;
0 <= u4_t2_h19 <= 1;
0 <= u4_t2_h20 <= 1;
u4_t2_h11 + u4_t2_h12 + u4_t2_h13 + u4_t2_h14 + u4_t2_h15 + u4_t2_h16 + u4_t2_h17 + u4_t2_h18 + u4_t2_h19 + u4_t2_h20 = 2;
0 <= u4_t3_h12 <= 1;
0 <= u4_t3_h13 <= 1;
0 <= u4_t3_h14 <= 1;
0 <= u4_t3_h15 <= 1;
0 <= u4_t3_h16 <= 1;
0 <= u4_t3_h17 <= 1;
0 <= u4_t3_h18 <= 1;
0 <= u4_t3_h19 <= 1;
u4_t3_h12 + u4_t3_h13 + u4_t3_h14 + u4_t3_h15 + u4_t3_h16 + u4_t3_h17 + u4_t3_h18 + u4_t3_h19 = 3;
0 <= u4_t4_h11 <= 1;
0 <= u4_t4_h12 <= 1;
0 <= u4_t4_h13 <= 1;
0 <= u4_t4_h14 <= 1;
0 <= u4_t4_h15 <= 1;
0 <= u4_t4_h16 <= 1;
u4_t4_h11 + u4_t4_h12 + u4_t4_h13 + u4_t4_h14 + u4_t4_h15 + u4_t4_h16 = 3;
0 <= u4_t5_h16 <= 1;
0 <= u4_t5_h17 <= 1;
0 <= u4_t5_h18 <= 1;
u4_t5_h16 + u4_t5_h17 + u4_t5_h18 = 1;
0 <= u4_t6_h19 <= 1;
0 <= u4_t6_h20 <= 1;
0 <= u4_t6_h21 <= 1;
0 <= u4_t6_h22 <= 1;
0 <= u4_t6_h23 <= 1;
u4_t6_h19 + u4_t6_h20 + u4_t6_h21 + u4_t6_h22 + u4_t6_h23 = 3;
0 <= u4_t7_h22 <= 1;
0 <= u4_t7_h23 <= 1;
u4_t7_h22 + u4_t7_h23 = 1;
0 <= u4_t8_h12 <= 1;
0 <= u4_t8_h13 <= 1;
0 <= u4_t8_h14 <= 1;
0 <= u4_t8_h15 <= 1;
0 <= u4_t8_h16 <= 1;
0 <= u4_t8_h17 <= 1;
0 <= u4_t8_h18 <= 1;
0 <= u4_t8_h19 <= 1;
u4_t8_h12 + u4_t8_h13 + u4_t8_h14 + u4_t8_h15 + u4_t8_h16 + u4_t8_h17 + u4_t8_h18 + u4_t8_h19 = 2;
0 <= u4_t9_h8 <= 1;
0 <= u4_t9_h9 <= 1;
0 <= u4_t9_h10 <= 1;
0 <= u4_t9_h11 <= 1;
0 <= u4_t9_h12 <= 1;
0 <= u4_t9_h13 <= 1;
0 <= u4_t9_h14 <= 1;
0 <= u4_t9_h15 <= 1;
0 <= u4_t9_h16 <= 1;
0 <= u4_t9_h17 <= 1;
0 <= u4_t9_h18 <= 1;
0 <= u4_t9_h19 <= 1;
0 <= u4_t9_h20 <= 1;
u4_t9_h8 + u4_t9_h9 + u4_t9_h10 + u4_t9_h11 + u4_t9_h12 + u4_t9_h13 + u4_t9_h14 + u4_t9_h15 + u4_t9_h16 + u4_t9_h17 + u4_t9_h18 + u4_t9_h19 + u4_t9_h20 = 2;
0 <= u4_t10_h4 <= 1;
0 <= u4_t10_h5 <= 1;
0 <= u4_t10_h6 <= 1;
0 <= u4_t10_h7 <= 1;
0 <= u4_t10_h8 <= 1;
0 <= u4_t10_h9 <= 1;
0 <= u4_t10_h10 <= 1;
0 <= u4_t10_h11 <= 1;
0 <= u4_t10_h12 <= 1;
u4_t10_h4 + u4_t10_h5 + u4_t10_h6 + u4_t10_h7 + u4_t10_h8 + u4_t10_h9 + u4_t10_h10 + u4_t10_h11 + u4_t10_h12 = 2;
